40
1 0 5
3 0 5
4 1 1
5 0 3
5 1 5
5 3 2
5 4 1
6 1 4
6 4 2
7 1 2
7 3 3
7 4 4
7 5 2
8 0 4
8 1 1
8 3 2
8 5 1
8 6 4
9 0 5
9 3 2
9 4 5
9 5 5
9 6 3
9 8 5
10 3 2
10 5 3
10 7 1
10 8 3
11 1 3
11 3 4
11 6 4
11 7 5
11 10 1
12 3 5
12 4 5
12 5 1
12 6 1
12 8 1
12 9 1
12 11 5
13 1 1
13 2 1
13 3 5
13 4 3
13 7 5
13 8 1
13 11 4
14 0 3
14 2 4
14 7 2
14 8 1
14 10 2
14 12 1
15 1 5
15 3 3
15 4 5
15 6 3
15 9 4
15 11 5
15 12 4
15 13 4
15 14 1
16 1 5
16 3 5
16 4 2
16 5 5
16 6 4
16 7 1
16 8 5
16 9 5
16 11 3
16 12 3
17 0 1
17 1 4
17 5 2
17 6 1
17 7 4
17 9 2
17 11 5
17 14 5
17 16 2
18 3 5
18 4 5
18 6 2
18 7 4
18 9 2
18 11 3
18 12 2
18 16 5
18 17 4
19 2 4
19 3 5
19 4 2
19 6 1
19 8 4
19 9 2
19 11 1
19 16 4
19 17 1
20 0 5
20 1 1
20 2 1
20 3 5
20 4 1
20 5 3
20 11 5
20 12 3
20 18 4
21 3 4
21 4 3
21 7 3
21 8 3
21 10 1
21 11 3
21 12 3
21 14 4
21 19 1
22 5 5
22 6 5
22 7 1
22 8 4
22 9 1
22 10 5
22 12 5
22 13 5
22 15 1
22 17 5
22 19 5
22 21 2
23 1 4
23 2 4
23 3 5
23 4 1
23 5 2
23 8 4
23 12 1
23 15 2
23 16 5
23 19 3
23 20 4
23 21 2
24 3 2
24 4 5
24 8 2
24 9 3
24 10 2
24 11 5
24 12 5
24 13 1
24 14 3
24 16 1
24 19 2
24 22 1
25 1 2
25 2 5
25 4 5
25 5 4
25 6 1
25 7 4
25 8 1
25 9 1
25 12 1
25 14 3
25 17 1
25 19 3
26 1 1
26 4 1
26 5 1
26 7 2
26 10 5
26 18 2
26 19 2
26 22 4
26 23 1
27 3 3
27 5 5
27 9 4
27 11 1
27 15 2
27 17 5
27 18 2
27 21 1
27 22 5
27 23 5
27 24 3
28 2 2
28 6 1
28 7 5
28 8 5
28 9 4
28 10 1
28 11 4
28 12 4
28 14 5
28 16 5
28 19 3
28 23 2
28 24 2
28 25 3
28 27 2
29 0 1
29 2 4
29 5 4
29 6 3
29 8 3
29 9 1
29 10 3
29 13 3
29 15 5
29 18 4
29 20 4
29 21 3
29 22 5
29 24 5
29 25 2
29 26 1
29 27 1
30 0 5
30 5 2
30 7 5
30 9 4
30 12 1
30 13 4
30 16 3
30 17 3
30 19 3
30 21 1
30 23 5
30 24 5
30 27 3
30 28 2
30 29 1
31 0 2
31 1 1
31 3 3
31 4 1
31 5 2
31 8 4
31 10 4
31 11 1
31 13 1
31 15 4
31 16 4
31 18 1
31 19 3
31 21 2
31 24 1
31 25 1
31 27 2
31 29 2
31 30 1
32 4 2
32 5 2
32 6 2
32 7 4
32 9 4
32 10 3
32 11 2
32 14 1
32 17 5
32 19 2
32 20 1
32 24 4
32 25 3
32 29 3
32 30 3
32 31 1
33 1 3
33 3 5
33 4 2
33 5 2
33 6 1
33 7 5
33 8 3
33 12 5
33 14 3
33 15 4
33 16 5
33 18 1
33 22 5
33 23 1
33 24 5
33 25 3
33 30 1
33 31 2
33 32 2
34 4 4
34 5 1
34 6 1
34 9 3
34 13 3
34 16 5
34 17 1
34 20 5
34 25 1
34 29 5
34 30 1
34 31 5
35 1 3
35 2 1
35 4 3
35 5 5
35 6 1
35 7 5
35 10 4
35 11 3
35 13 5
35 20 2
35 23 4
35 24 2
35 25 4
35 27 4
35 30 3
35 31 3
35 34 3
36 0 5
36 1 4
36 3 1
36 6 3
36 8 4
36 9 1
36 12 4
36 14 3
36 15 3
36 17 5
36 18 2
36 19 1
36 20 3
36 26 2
36 28 5
36 29 5
36 31 2
36 33 1
37 0 4
37 2 5
37 5 4
37 7 4
37 9 2
37 14 1
37 17 5
37 18 1
37 21 3
37 24 4
37 25 4
37 29 4
37 31 2
37 32 3
37 33 5
37 35 2
37 36 3
38 0 2
38 1 1
38 2 2
38 4 3
38 7 1
38 8 5
38 11 4
38 13 4
38 19 5
38 20 5
38 21 1
38 24 4
38 25 4
38 27 5
38 28 4
38 30 1
38 32 2
38 34 2
38 35 5
38 36 5
39 0 2
39 1 5
39 2 1
39 4 3
39 5 1
39 7 4
39 10 2
39 13 2
39 14 4
39 17 5
39 19 3
39 23 4
39 25 5
39 26 3
39 27 2
39 31 4
39 32 5
39 34 3
39 35 2
39 36 2
39 37 4
